min: 784 x1 + 852 x2 + 340 x3 + 269 x4 + 869 x5 + 489 x6 + 520 x7 + 486 x8 + 917 x9 + 802 x10 + 420 x11 + 479 x12 + 22 x13 + 288 x14 + 696 x15;

r1: x7 + x5 >= 1;
r2: x14 + x13 + x9 >= 1;
r3: x10 + x4 + x15 + x11 + x9 + x8 >= 1;
r4: x4 + x2 + x11 >= 1;
r5: x8 + x5 >= 1;
r6: x9 + x8 + x13 + x12 >= 1;
r7: x2 + x15 + x5 + x12 + x9 >= 1;
r8: x1 + x2 + x4 + x9 + x6 + x8 >= 1;
r9: x9 + x2 + x6 >= 1;
r10: x12 + x13 >= 1;
r11: x7 >= 1;
r12: x14 + x13 + x15 + x1 + x4 + x10 >= 1;
r13: x15 + x5 + x2 + x13 + x4 >= 1;
r14: x13 >= 1;
r15: x11 + x8 + x13 + x15 + x14 + x1 >= 1;
r16: x12 + x13 >= 1;
r17: x2 + x5 + x15 >= 1;
r18: x9 + x6 + x3 + x14 + x15 >= 1;
r19: x9 + x14 + x4 + x3 + x8 >= 1;
r20: x3 + x9 >= 1;
r21: x1 + x13 + x7 + x6 + x2 >= 1;
r22: x1 + x8 + x2 + x5 + x11 + x3 >= 1;
r23: x8 >= 1;
r24: x4 >= 1;
r25: x12 + x2 + x14 + x4 >= 1;
r26: x1 + x9 + x6 >= 1;
r27: x13 + x12 + x1 >= 1;
r28: x11 >= 1;
r29: x3 + x8 >= 1;
r30: x6 + x7 + x14 + x9 + x8 + x12 >= 1;
r31: x7 + x4 >= 1;
r32: x15 + x5 + x3 + x13 + x2 >= 1;
r33: x3 + x12 >= 1;
r34: x10 + x13 + x3 + x14 + x11 + x12 >= 1;
r35: x10 + x3 >= 1;
r36: x12 + x5 >= 1;
r37: x9 + x5 >= 1;
r38: x6 + x10 + x13 + x12 >= 1;
r39: x2 + x5 + x6 + x1 + x3 + x14 >= 1;
r40: x14 + x12 + x2 + x9 + x10 >= 1;
r41: x14 + x2 + x9 + x7 + x5 >= 1;
r42: x5 + x2 + x6 + x12 + x4 + x1 >= 1;
r43: x12 + x9 + x4 + x6 + x1 + x14 >= 1;
r44: x4 + x10 + x3 + x1 >= 1;
r45: x11 + x5 + x15 + x12 + x3 >= 1;
r46: x5 + x7 + x12 >= 1;
r47: x3 + x12 + x15 + x13 + x9 + x4 >= 1;
r48: x6 >= 1;
r49: x8 + x4 + x9 + x11 >= 1;
r50: x5 + x1 + x3 + x10 + x2 >= 1;

bin x1, x2, x3, x4, x5, x6, x7, x8, x9, x10, x11, x12, x13, x14, x15;
